Version identifier: 22.1.0.0 | 2022-03-09 | 1a383f8ce
CPXPARAM_Threads                                 1
CPXPARAM_MIP_Strategy_VariableSelect             3
CPXPARAM_TimeLimit                               599.99725946700005
Tried aggregator 1 time.
MIP Presolve eliminated 13 rows and 0 columns.
MIP Presolve modified 2 coefficients.
Reduced MIP has 912 rows, 2869 columns, and 32078 nonzeros.
Reduced MIP has 2869 binaries, 0 generals, 0 SOSs, and 0 indicators.
Presolve time = 0.02 sec. (15.30 ticks)
Probing time = 0.00 sec. (3.33 ticks)
Tried aggregator 1 time.
Detecting symmetries...
Reduced MIP has 912 rows, 2869 columns, and 32078 nonzeros.
Reduced MIP has 2869 binaries, 0 generals, 0 SOSs, and 0 indicators.
Presolve time = 0.02 sec. (18.71 ticks)
Probing time = 0.00 sec. (3.33 ticks)
Clique table members: 597.
MIP emphasis: balance optimality and feasibility.
MIP search method: dynamic search.
Parallel mode: none, using 1 thread.
Root relaxation solution time = 0.05 sec. (46.76 ticks)

        Nodes                                         Cuts/
   Node  Left     Objective  IInf  Best Integer    Best Bound    ItCnt     Gap

      0     0        0.0000   445                      0.0000      674         
*     0+    0                            0.0000        0.0000             0.00%
      0     0        cutoff              0.0000        0.0000      674    0.00%
Elapsed time = 0.37 sec. (293.78 ticks, tree = 0.01 MB, solutions = 1)

Root node processing (before b&c):
  Real time             =    0.37 sec. (293.87 ticks)
Sequential b&c:
  Real time             =    0.00 sec. (0.00 ticks)
                          ------------
Total (root+branch&cut) =    0.37 sec. (293.87 ticks)
Version identifier: 22.1.0.0 | 2022-03-09 | 1a383f8ce
CPXPARAM_Threads                                 1
CPXPARAM_MIP_Strategy_VariableSelect             3
CPXPARAM_TimeLimit                               599.60579266299999
Tried aggregator 1 time.
MIP Presolve eliminated 13 rows and 0 columns.
MIP Presolve modified 1 coefficients.
Reduced MIP has 1362 rows, 4294 columns, and 48278 nonzeros.
Reduced MIP has 4294 binaries, 0 generals, 0 SOSs, and 0 indicators.
Presolve time = 0.03 sec. (22.63 ticks)
Probing time = 0.00 sec. (3.65 ticks)
Tried aggregator 1 time.
Detecting symmetries...
Reduced MIP has 1362 rows, 4294 columns, and 48278 nonzeros.
Reduced MIP has 4294 binaries, 0 generals, 0 SOSs, and 0 indicators.
Presolve time = 0.03 sec. (28.01 ticks)
Probing time = 0.00 sec. (3.65 ticks)
Clique table members: 897.
MIP emphasis: balance optimality and feasibility.
MIP search method: dynamic search.
Parallel mode: none, using 1 thread.
Root relaxation solution time = 0.47 sec. (482.12 ticks)

        Nodes                                         Cuts/
   Node  Left     Objective  IInf  Best Integer    Best Bound    ItCnt     Gap

      0     0        0.0000   956                      0.0000     2790         
*     0+    0                            0.0000        0.0000             0.00%
      0     0        cutoff              0.0000        0.0000     2790    0.00%
Elapsed time = 1.14 sec. (1062.58 ticks, tree = 0.01 MB, solutions = 1)

Root node processing (before b&c):
  Real time             =    1.14 sec. (1062.71 ticks)
Sequential b&c:
  Real time             =    0.00 sec. (0.00 ticks)
                          ------------
Total (root+branch&cut) =    1.14 sec. (1062.71 ticks)
Version identifier: 22.1.0.0 | 2022-03-09 | 1a383f8ce
CPXPARAM_Threads                                 1
CPXPARAM_MIP_Strategy_VariableSelect             3
CPXPARAM_TimeLimit                               598.44283875099995
Tried aggregator 1 time.
MIP Presolve eliminated 13 rows and 0 columns.
MIP Presolve modified 1 coefficients.
Reduced MIP has 1584 rows, 4997 columns, and 56270 nonzeros.
Reduced MIP has 4997 binaries, 0 generals, 0 SOSs, and 0 indicators.
Presolve time = 0.03 sec. (26.30 ticks)
Probing time = 0.00 sec. (3.81 ticks)
Tried aggregator 1 time.
Detecting symmetries...
Reduced MIP has 1584 rows, 4997 columns, and 56270 nonzeros.
Reduced MIP has 4997 binaries, 0 generals, 0 SOSs, and 0 indicators.
Presolve time = 0.04 sec. (32.61 ticks)
Probing time = 0.00 sec. (3.81 ticks)
Clique table members: 1045.
MIP emphasis: balance optimality and feasibility.
MIP search method: dynamic search.
Parallel mode: none, using 1 thread.
Root relaxation solution time = 0.63 sec. (655.99 ticks)

        Nodes                                         Cuts/
   Node  Left     Objective  IInf  Best Integer    Best Bound    ItCnt     Gap

      0     0        0.0000  1125                      0.0000     3038         
*     0+    0                            0.0000        0.0000             0.00%
      0     0        cutoff              0.0000        0.0000     3038    0.00%
Elapsed time = 2.63 sec. (2699.27 ticks, tree = 0.01 MB, solutions = 1)

Root node processing (before b&c):
  Real time             =    2.63 sec. (2699.42 ticks)
Sequential b&c:
  Real time             =    0.00 sec. (0.00 ticks)
                          ------------
Total (root+branch&cut) =    2.63 sec. (2699.42 ticks)
Version identifier: 22.1.0.0 | 2022-03-09 | 1a383f8ce
CPXPARAM_Threads                                 1
CPXPARAM_MIP_Strategy_VariableSelect             3
CPXPARAM_TimeLimit                               595.78133728299997
Tried aggregator 1 time.
MIP Presolve eliminated 13 rows and 0 columns.
MIP Presolve modified 1 coefficients.
Reduced MIP has 1698 rows, 5358 columns, and 60374 nonzeros.
Reduced MIP has 5358 binaries, 0 generals, 0 SOSs, and 0 indicators.
Presolve time = 0.04 sec. (28.17 ticks)
Probing time = 0.00 sec. (3.88 ticks)
Tried aggregator 1 time.
Detecting symmetries...
Reduced MIP has 1698 rows, 5358 columns, and 60374 nonzeros.
Reduced MIP has 5358 binaries, 0 generals, 0 SOSs, and 0 indicators.
Presolve time = 0.04 sec. (34.99 ticks)
Probing time = 0.00 sec. (3.88 ticks)
Clique table members: 1121.
MIP emphasis: balance optimality and feasibility.
MIP search method: dynamic search.
Parallel mode: none, using 1 thread.
Root relaxation solution time = 0.81 sec. (844.46 ticks)

        Nodes                                         Cuts/
   Node  Left     Objective  IInf  Best Integer    Best Bound    ItCnt     Gap

      0     0        0.0000  1210                      0.0000     3605         
      0     0        0.0000   251                  Cliques: 3     3910         
      0     0        0.0000   534                   Cuts: 111     5152         
      0     0        0.0000    18                 ZeroHalf: 1     5193         
      0     0        0.0000    78                     Cuts: 9     6304         
      0     2        0.0000    19                      0.0000     6304         
Elapsed time = 34.33 sec. (38439.10 ticks, tree = 0.01 MB, solutions = 0)
      2     2        0.0000    56                      0.0000     8398         
      3     3        0.0000    24                      0.0000     9853         
      4     4        0.0000   104                      0.0000    11837         
      5     5        0.0000    23                      0.0000    11970         
      6     6        0.0000    12                      0.0000    13286         
      7     7        0.0000    18                      0.0000    13598         
      8     8        0.0000    22                      0.0000    16186         
      9     9        0.0000    16                      0.0000    23511         
     10    10        0.0000    16                      0.0000    23831         
     11    11        0.0000   250                      0.0000    30709         
Elapsed time = 42.64 sec. (47184.79 ticks, tree = 0.05 MB, solutions = 0)
     13    12        0.0000    76                      0.0000    37885         
     14    13        0.0000    72                      0.0000    40858         
     15    14        0.0000   874                      0.0000    49442         
     19    16        0.0000   146                      0.0000    52044         
     22    19        0.0000   148                      0.0000    55147         
     26    23        0.0000   213                      0.0000    57432         
     29    26        0.0000    94                      0.0000    58913         
     31    28        0.0000   140                      0.0000    59981         
     35    32        0.0000   148                      0.0000    60956         
     40    37        0.0000   133                      0.0000    62709         
Elapsed time = 56.61 sec. (61225.26 ticks, tree = 0.35 MB, solutions = 0)
     45    42        0.0000   135                      0.0000    63679         
     50    47        0.0000   122                      0.0000    64538         
     55    52        0.0000   146                      0.0000    65801         
     61    58        0.0000    77                      0.0000    66697         
     66    63        0.0000   107                      0.0000    69384         
     70    65        0.0000   140                      0.0000    71097         
     76    69        0.0000   276                      0.0000    72893         
     80    73        0.0000   175                      0.0000    74172         
     84    77        0.0000   136                      0.0000    75826         
     89    81        0.0000   146                      0.0000    77485         
Elapsed time = 68.86 sec. (72992.22 ticks, tree = 1.04 MB, solutions = 0)
     95    87        0.0000   142                      0.0000    79256         
    100    92        0.0000   111                      0.0000    80611         
    106    97        0.0000   133                      0.0000    82238         
    111   102        0.0000    81                      0.0000    84055         
    116   107        0.0000   234                      0.0000    86744         
    121   112        0.0000    90                      0.0000    88487         
    126   117        0.0000   186                      0.0000    90257         
    132   123        0.0000   252                      0.0000    91973         
    138   129        0.0000   147                      0.0000    93903         
    145   136        0.0000    93                      0.0000    94898         
Elapsed time = 80.03 sec. (83673.82 ticks, tree = 1.93 MB, solutions = 0)
    151   142        0.0000   144                      0.0000    96612         
    155   146        0.0000   118                      0.0000    99081         
    160   151        0.0000   270                      0.0000   100586         
    168   156        0.0000   103                      0.0000   102009         
    173   161        0.0000   169                      0.0000   104515         
    179   166        0.0000   160                      0.0000   106938         
    185   171        0.0000   205                      0.0000   108996         
    192   177        0.0000   150                      0.0000   110511         
    199   184        0.0000   162                      0.0000   111905         
    206   191        0.0000   153                      0.0000   113532         
Elapsed time = 92.00 sec. (94811.25 ticks, tree = 2.80 MB, solutions = 0)
    213   197        0.0000   173                      0.0000   115775         
    220   203        0.0000   152                      0.0000   117473         
    228   209        0.0000   220                      0.0000   119141         
    236   217        0.0000   170                      0.0000   120924         
    242   223        0.0000   192                      0.0000   122966         
    249   230        0.0000   188                      0.0000   125474         
    259   239        0.0000   200                      0.0000   127424         
    269   249        0.0000   209                      0.0000   129296         
    280   260        0.0000   147                      0.0000   131258         
    291   270        0.0000    68                      0.0000   133449         
Elapsed time = 103.81 sec. (105330.73 ticks, tree = 4.07 MB, solutions = 0)
    308   271    infeasible                            0.0000   137313         
    316   271        0.0000   560                      0.0000   140956         
    319   272        0.0000   307                      0.0000   142022         
    322   275        0.0000   292                      0.0000   142824         
    325   278        0.0000   221                      0.0000   144238         
    329   282        0.0000   196                      0.0000   144776         
    333   286        0.0000   311                      0.0000   146977         
    337   289        0.0000   253                      0.0000   147834         
    341   293        0.0000   374                      0.0000   149387         
    346   298        0.0000   263                      0.0000   150569         
Elapsed time = 115.35 sec. (116519.79 ticks, tree = 4.51 MB, solutions = 0)
    351   302        0.0000   261                      0.0000   151489         
    356   307        0.0000   214                      0.0000   152483         
    360   310        0.0000   232                      0.0000   153404         
    365   314        0.0000   224                      0.0000   155333         
    369   318        0.0000   232                      0.0000   156234         
    374   323        0.0000   208                      0.0000   157992         
    379   328        0.0000   225                      0.0000   159126         
    383   332        0.0000   186                      0.0000   161140         
    388   337        0.0000   170                      0.0000   162550         
    393   341        0.0000   244                      0.0000   164799         
Elapsed time = 126.67 sec. (127364.13 ticks, tree = 5.19 MB, solutions = 0)
    399   347        0.0000   234                      0.0000   166504         
    404   351        0.0000   222                      0.0000   168596         
    408   354        0.0000   262                      0.0000   169996         
    413   359        0.0000   276                      0.0000   171119         
    418   362        0.0000   295                      0.0000   172211         
    424   366        0.0000   404                      0.0000   174156         
    430   372        0.0000   197                      0.0000   175642         
    434   376        0.0000   214                      0.0000   178541         
    439   380        0.0000   232                      0.0000   180911         
    445   386        0.0000   187                      0.0000   182773         
Elapsed time = 137.72 sec. (137740.27 ticks, tree = 5.92 MB, solutions = 0)
    450   390        0.0000   391                      0.0000   185178         
    456   396        0.0000   271                      0.0000   187297         
    462   401        0.0000   156                      0.0000   189457         
    470   408        0.0000   237                      0.0000   191595         
    480   417        0.0000   152                      0.0000   193237         
    489   425        0.0000   184                      0.0000   195623         
    499   434        0.0000   147                      0.0000   197904         
    515   440        0.0000   215                      0.0000   201513         
    519   441        0.0000   239                      0.0000   207467         
    532   451        0.0000   373                      0.0000   213296         
Elapsed time = 152.89 sec. (151957.71 ticks, tree = 6.96 MB, solutions = 0)
    549   467        0.0000   361                      0.0000   217689         
    570   485        0.0000   362                      0.0000   221725         
    600   504    infeasible                            0.0000   229134         
    610   512        0.0000    61                      0.0000   235786         
    626   526        0.0000   172                      0.0000   242412         
    640   539        0.0000   531                      0.0000   248587         
    657   553        0.0000   380                      0.0000   253584         
    675   568        0.0000   394                      0.0000   260299         
    692   583        0.0000   213                      0.0000   266340         
    713   604        0.0000   180                      0.0000   272357         
Elapsed time = 193.93 sec. (191147.32 ticks, tree = 9.40 MB, solutions = 0)
    739   626        0.0000   121                      0.0000   278824         
    762   647        0.0000   143                      0.0000   285947         
    788   669        0.0000   113                      0.0000   292558         
    807   686        0.0000    10                      0.0000   299743         
    821   699        0.0000    86                      0.0000   305656         
    839   715        0.0000   101                      0.0000   310713         
    856   731        0.0000   169                      0.0000   315081         
    873   748        0.0000   203                      0.0000   320580         
    892   766        0.0000   253                      0.0000   327148         
    910   781        0.0000   216                      0.0000   333973         
Elapsed time = 235.19 sec. (230607.82 ticks, tree = 12.21 MB, solutions = 0)
    933   803        0.0000   141                      0.0000   340693         
    950   818        0.0000   258                      0.0000   348484         
    972   837        0.0000   227                      0.0000   353721         

Performing restart 1

Repeating presolve.
Tried aggregator 1 time.
MIP Presolve eliminated 0 rows and 4 columns.
MIP Presolve modified 54 coefficients.
Reduced MIP has 1698 rows, 5354 columns, and 60298 nonzeros.
Reduced MIP has 5354 binaries, 0 generals, 0 SOSs, and 0 indicators.
Presolve time = 0.04 sec. (30.23 ticks)
Tried aggregator 1 time.
Reduced MIP has 1698 rows, 5354 columns, and 60298 nonzeros.
Reduced MIP has 5354 binaries, 0 generals, 0 SOSs, and 0 indicators.
Presolve time = 0.04 sec. (33.69 ticks)
Represolve time = 0.36 sec. (216.46 ticks)
    980     0        0.0000   198                     Cuts: 4   360522         
    980     2        0.0000   111                      0.0000   360522         
    987     5        0.0000   137                      0.0000   371534         
    993    10        0.0000   244                      0.0000   383096         
   1005    22        0.0000   575                      0.0000   391945         
   1019    34        0.0000   472                      0.0000   395719         
   1040    55        0.0000   463                      0.0000   404851         
   1063    78        0.0000   398                      0.0000   414249         
Elapsed time = 288.85 sec. (284477.27 ticks, tree = 0.20 MB, solutions = 0)
   1080    94        0.0000   383                      0.0000   421751         
   1100   112        0.0000   494                      0.0000   436101         
   1123   135        0.0000   424                      0.0000   448048         
   1140   152        0.0000   358                      0.0000   457201         
   1163   170        0.0000   419                      0.0000   471955         
   1184   190        0.0000   402                      0.0000   480245         
   1209   214        0.0000   500                      0.0000   490719         
   1236   235        0.0000   485                      0.0000   502792         
   1261   258        0.0000   394                      0.0000   513952         
   1287   283        0.0000   424                      0.0000   526897         
Elapsed time = 330.17 sec. (324028.98 ticks, tree = 0.70 MB, solutions = 0)
   1316   309        0.0000   400                      0.0000   537006         
   1344   332        0.0000   413                      0.0000   548083         
   1374   357        0.0000   562                      0.0000   562046         
   1407   382        0.0000   289                      0.0000   582272         
   1447   416        0.0000   334                      0.0000   600223         
   1488   454        0.0000   298                      0.0000   618410         
   1537   488        0.0000   197                      0.0000   632688         
   1574   503        0.0000   298                      0.0000   645440         
   1595   521        0.0000   296                      0.0000   655710         
   1617   538        0.0000   298                      0.0000   666958         
Elapsed time = 372.32 sec. (362988.03 ticks, tree = 1.30 MB, solutions = 0)
   1638   557        0.0000   331                      0.0000   679590         
   1661   578        0.0000   367                      0.0000   692056         
   1685   602        0.0000   333                      0.0000   704430         
   1707   624        0.0000   344                      0.0000   717265         
   1728   644        0.0000   327                      0.0000   731497         
   1750   663        0.0000   641                      0.0000   744068         
   1774   683        0.0000   372                      0.0000   756446         
   1803   692        0.0000   728                      0.0000   769679         
   1822   710        0.0000   554                      0.0000   774749         
   1845   728        0.0000   558                      0.0000   779920         
Elapsed time = 412.33 sec. (402301.31 ticks, tree = 1.73 MB, solutions = 0)
   1863   746        0.0000   547                      0.0000   785742         
   1888   767        0.0000   458                      0.0000   791319         
   1900   779        0.0000   432                      0.0000   794219         
   1924   800        0.0000   402                      0.0000   803929         
   1946   819        0.0000   415                      0.0000   812868         

Performing restart 2

Repeating presolve.
Tried aggregator 1 time.
MIP Presolve eliminated 0 rows and 1 columns.
Reduced MIP has 1698 rows, 5353 columns, and 60280 nonzeros.
Reduced MIP has 5353 binaries, 0 generals, 0 SOSs, and 0 indicators.
Presolve time = 0.04 sec. (27.84 ticks)
Tried aggregator 1 time.
Reduced MIP has 1698 rows, 5353 columns, and 60280 nonzeros.
Reduced MIP has 5353 binaries, 0 generals, 0 SOSs, and 0 indicators.
Presolve time = 0.04 sec. (33.88 ticks)
Represolve time = 0.59 sec. (297.61 ticks)
   1960     0        0.0000   378                     Cuts: 6   822564         
   1960     0        0.0000   460                   Cuts: 136   823597         
   1960     0        0.0000   159                  Cliques: 3   823995         
   1960     0        0.0000   327                    Cuts: 62   824612         
   1960     0        0.0000   113                  Cliques: 1   824758         
   1960     0        0.0000   216                    Cuts: 61   826014         
   1960     0        0.0000   402                     Cuts: 8   827455         
   1960     2        0.0000    59                      0.0000   827455         
   1967     6        0.0000   208                      0.0000   838293         
   1973    12        0.0000   179                      0.0000   849059         
   1978    17        0.0000   190                      0.0000   862576         
   1983    22        0.0000   297                      0.0000   879303         
Elapsed time = 507.64 sec. (499935.11 ticks, tree = 0.07 MB, solutions = 0)
   1992    31        0.0000   155                      0.0000   884851         
   2008    47        0.0000   111                      0.0000   893059         
   2025    64        0.0000   101                      0.0000   900645         
   2045    83        0.0000   201                      0.0000   914083         
   2057    94        0.0000   439                      0.0000   929166         
   2075   111        0.0000   123                      0.0000   936620         
   2096   129        0.0000    93                      0.0000   947596         
   2112   145        0.0000   180                      0.0000   959257         
   2128   161        0.0000   143                      0.0000   968888         
   2140   171        0.0000   128                      0.0000   981071         
Elapsed time = 550.10 sec. (542025.19 ticks, tree = 0.42 MB, solutions = 0)
   2154   184        0.0000   206                      0.0000   992845         
   2170   200        0.0000   225                      0.0000  1005605         
   2190   220        0.0000   239                      0.0000  1018224         
   2210   238        0.0000   238                      0.0000  1031512         
   2243   263        0.0000   268                      0.0000  1041902         
   2293   286        0.0000    60                      0.0000  1052284         
   2308   301        0.0000   106                      0.0000  1065205         
   2327   317        0.0000   233                      0.0000  1077550         
   2342   331        0.0000   347                      0.0000  1086469         
   2372   357        0.0000   324                      0.0000  1093110         
Elapsed time = 590.72 sec. (580830.12 ticks, tree = 0.92 MB, solutions = 0)
   2401   380        0.0000   221                      0.0000  1104241         

Clique cuts applied:  4
Zero-half cuts applied:  3
Gomory fractional cuts applied:  1

Root node processing (before b&c):
  Real time             =   34.28 sec. (38394.21 ticks)
Sequential b&c:
  Real time             =  561.50 sec. (547205.89 ticks)
                          ------------
Total (root+branch&cut) =  595.78 sec. (585600.09 ticks)
Primal:	263
Dual:	300
Status:	Feasible
Time:	600.027
Sequence:
	0
	10
